50
1 0 61
2 0 34
2 1 24
3 0 16
3 1 38
3 2 41
4 0 61
4 1 56
4 2 14
4 3 69
5 0 36
5 1 59
5 2 68
5 3 44
5 4 36
6 0 1
6 1 73
6 2 29
6 3 18
6 4 19
6 5 31
7 0 54
7 1 80
7 2 6
7 3 71
7 4 32
7 5 2
7 6 30
8 0 62
8 1 39
8 2 33
8 3 71
8 4 52
8 5 32
8 6 31
8 7 44
9 0 55
9 1 69
9 2 16
9 3 1
9 4 60
9 5 28
9 6 11
9 7 73
9 8 14
10 0 31
10 1 21
10 2 12
10 3 54
10 4 46
10 5 61
10 6 9
10 7 65
10 8 73
10 9 26
11 0 48
11 1 72
11 2 65
11 3 43
11 4 1
11 5 27
11 6 69
11 7 37
11 8 74
11 9 56
11 10 24
12 0 76
12 1 5
12 2 12
12 3 58
12 4 3
12 5 45
12 6 77
12 7 30
12 8 70
12 9 56
12 10 14
12 11 23
13 0 57
13 1 59
13 2 61
13 3 73
13 4 5
13 5 31
13 6 56
13 7 3
13 8 1
13 9 15
13 10 80
13 11 25
13 12 27
14 0 55
14 1 38
14 2 26
14 3 67
14 4 18
14 5 61
14 6 35
14 7 6
14 8 72
14 9 74
14 10 50
14 11 42
14 12 53
14 13 60
15 0 77
15 1 42
15 2 72
15 3 37
15 4 52
15 5 78
15 6 79
15 7 31
15 8 55
15 9 23
15 10 32
15 11 78
15 12 44
15 13 17
15 14 42
16 0 8
16 1 32
16 2 48
16 3 31
16 4 44
16 5 72
16 6 3
16 7 58
16 8 13
16 9 42
16 10 1
16 11 12
16 12 6
16 13 67
16 14 13
16 15 38
17 0 63
17 1 31
17 2 49
17 3 25
17 4 30
17 5 76
17 6 31
17 7 49
17 8 63
17 9 30
17 10 55
17 11 46
17 12 9
17 13 26
17 14 20
17 15 27
17 16 31
18 0 42
18 1 10
18 2 28
18 3 9
18 4 29
18 5 60
18 6 77
18 7 58
18 8 8
18 9 1
18 10 16
18 11 50
18 12 60
18 13 49
18 14 32
18 15 38
18 16 51
18 17 10
19 0 15
19 1 75
19 2 12
19 3 36
19 4 10
19 5 6
19 6 76
19 7 42
19 8 70
19 9 73
19 10 9
19 11 45
19 12 67
19 13 13
19 14 42
19 15 9
19 16 34
19 17 70
19 18 56
20 0 61
20 1 46
20 2 49
20 3 76
20 4 24
20 5 16
20 6 36
20 7 23
20 8 47
20 9 42
20 10 60
20 11 63
20 12 40
20 13 46
20 14 60
20 15 7
20 16 55
20 17 27
20 18 14
20 19 29
21 0 76
21 1 18
21 2 41
21 3 71
21 4 51
21 5 4
21 6 60
21 7 4
21 8 15
21 9 39
21 10 44
21 11 39
21 12 65
21 13 49
21 14 19
21 15 42
21 16 73
21 17 33
21 18 12
21 19 27
21 20 60
22 0 78
22 1 5
22 2 31
22 3 40
22 4 64
22 5 70
22 6 74
22 7 44
22 8 55
22 9 60
22 10 70
22 11 72
22 12 68
22 13 20
22 14 22
22 15 65
22 16 25
22 17 36
22 18 75
22 19 19
22 20 70
22 21 63
23 0 22
23 1 44
23 2 3
23 3 17
23 4 22
23 5 54
23 6 53
23 7 1
23 8 9
23 9 52
23 10 27
23 11 21
23 12 71
23 13 9
23 14 64
23 15 62
23 16 39
23 17 30
23 18 59
23 19 4
23 20 42
23 21 4
23 22 59
24 0 45
24 1 75
24 2 25
24 3 47
24 4 31
24 5 49
24 6 26
24 7 61
24 8 7
24 9 3
24 10 35
24 11 6
24 12 15
24 13 13
24 14 7
24 15 56
24 16 70
24 17 48
24 18 50
24 19 7
24 20 38
24 21 6
24 22 38
24 23 47
25 0 16
25 1 58
25 2 17
25 3 37
25 4 71
25 5 40
25 6 53
25 7 4
25 8 72
25 9 3
25 10 4
25 11 75
25 12 35
25 13 42
25 14 50
25 15 47
25 16 52
25 17 46
25 18 50
25 19 48
25 20 67
25 21 76
25 22 14
25 23 52
25 24 3
26 0 75
26 1 54
26 2 80
26 3 6
26 4 34
26 5 60
26 6 50
26 7 6
26 8 9
26 9 62
26 10 62
26 11 40
26 12 44
26 13 44
26 14 37
26 15 53
26 16 44
26 17 46
26 18 75
26 19 12
26 20 44
26 21 24
26 22 35
26 23 31
26 24 69
26 25 70
27 0 48
27 1 56
27 2 59
27 3 38
27 4 33
27 5 15
27 6 66
27 7 30
27 8 40
27 9 41
27 10 42
27 11 8
27 12 18
27 13 36
27 14 3
27 15 30
27 16 67
27 17 36
27 18 33
27 19 75
27 20 52
27 21 5
27 22 61
27 23 1
27 24 1
27 25 51
27 26 30
28 0 34
28 1 37
28 2 58
28 3 43
28 4 39
28 5 45
28 6 7
28 7 19
28 8 72
28 9 1
28 10 23
28 11 78
28 12 67
28 13 11
28 14 23
28 15 41
28 16 38
28 17 79
28 18 31
28 19 16
28 20 62
28 21 43
28 22 45
28 23 14
28 24 31
28 25 53
28 26 2
28 27 49
29 0 73
29 1 71
29 2 40
29 3 71
29 4 71
29 5 24
29 6 44
29 7 20
29 8 13
29 9 69
29 10 5
29 11 21
29 12 51
29 13 7
29 14 40
29 15 34
29 16 44
29 17 75
29 18 64
29 19 35
29 20 53
29 21 14
29 22 67
29 23 4
29 24 8
29 25 68
29 26 65
29 27 57
29 28 56
30 0 24
30 1 13
30 2 12
30 3 14
30 4 2
30 5 55
30 6 54
30 7 23
30 8 37
30 9 11
30 10 7
30 11 76
30 12 14
30 13 20
30 14 11
30 15 7
30 16 20
30 17 6
30 18 5
30 19 25
30 20 68
30 21 25
30 22 56
30 23 6
30 24 13
30 25 50
30 26 15
30 27 62
30 28 20
30 29 19
31 0 11
31 1 68
31 2 45
31 3 47
31 4 71
31 5 78
31 6 77
31 7 38
31 8 25
31 9 67
31 10 60
31 11 3
31 12 79
31 13 12
31 14 71
31 15 64
31 16 4
31 17 60
31 18 38
31 19 20
31 20 73
31 21 11
31 22 11
31 23 65
31 24 35
31 25 57
31 26 61
31 27 19
31 28 57
31 29 34
31 30 12
32 0 68
32 1 7
32 2 66
32 3 4
32 4 74
32 5 21
32 6 51
32 7 62
32 8 23
32 9 67
32 10 25
32 11 50
32 12 76
32 13 9
32 14 12
32 15 41
32 16 25
32 17 40
32 18 8
32 19 46
32 20 17
32 21 50
32 22 13
32 23 61
32 24 73
32 25 76
32 26 5
32 27 58
32 28 67
32 29 58
32 30 61
32 31 21
33 0 40
33 1 19
33 2 48
33 3 26
33 4 9
33 5 79
33 6 47
33 7 35
33 8 55
33 9 12
33 10 71
33 11 56
33 12 57
33 13 25
33 14 37
33 15 7
33 16 53
33 17 54
33 18 46
33 19 41
33 20 73
33 21 68
33 22 43
33 23 68
33 24 65
33 25 6
33 26 1
33 27 7
33 28 10
33 29 52
33 30 39
33 31 2
33 32 68
34 0 55
34 1 1
34 2 32
34 3 29
34 4 40
34 5 16
34 6 22
34 7 17
34 8 31
34 9 10
34 10 5
34 11 8
34 12 38
34 13 40
34 14 45
34 15 80
34 16 73
34 17 31
34 18 71
34 19 4
34 20 54
34 21 30
34 22 1
34 23 13
34 24 50
34 25 58
34 26 47
34 27 18
34 28 57
34 29 20
34 30 3
34 31 20
34 32 26
34 33 53
35 0 5
35 1 6
35 2 29
35 3 61
35 4 28
35 5 26
35 6 32
35 7 63
35 8 56
35 9 67
35 10 77
35 11 45
35 12 20
35 13 46
35 14 2
35 15 41
35 16 24
35 17 75
35 18 77
35 19 47
35 20 67
35 21 77
35 22 63
35 23 47
35 24 7
35 25 51
35 26 21
35 27 38
35 28 32
35 29 49
35 30 21
35 31 68
35 32 26
35 33 57
35 34 50
36 0 28
36 1 66
36 2 26
36 3 4
36 4 66
36 5 75
36 6 34
36 7 80
36 8 57
36 9 15
36 10 57
36 11 61
36 12 43
36 13 62
36 14 35
36 15 67
36 16 70
36 17 18
36 18 39
36 19 41
36 20 5
36 21 77
36 22 10
36 23 20
36 24 27
36 25 15
36 26 29
36 27 20
36 28 34
36 29 65
36 30 60
36 31 25
36 32 56
36 33 38
36 34 16
36 35 58
37 0 20
37 1 64
37 2 6
37 3 10
37 4 55
37 5 44
37 6 55
37 7 19
37 8 47
37 9 13
37 10 67
37 11 4
37 12 45
37 13 68
37 14 16
37 15 74
37 16 53
37 17 42
37 18 47
37 19 49
37 20 49
37 21 66
37 22 27
37 23 5
37 24 62
37 25 16
37 26 42
37 27 59
37 28 17
37 29 77
37 30 48
37 31 54
37 32 1
37 33 38
37 34 52
37 35 41
37 36 65
38 0 8
38 1 48
38 2 20
38 3 19
38 4 42
38 5 61
38 6 28
38 7 42
38 8 42
38 9 51
38 10 63
38 11 65
38 12 32
38 13 1
38 14 54
38 15 51
38 16 37
38 17 55
38 18 74
38 19 52
38 20 46
38 21 16
38 22 79
38 23 60
38 24 29
38 25 53
38 26 37
38 27 78
38 28 53
38 29 39
38 30 38
38 31 72
38 32 44
38 33 28
38 34 61
38 35 33
38 36 48
38 37 9
39 0 78
39 1 10
39 2 52
39 3 26
39 4 62
39 5 60
39 6 77
39 7 31
39 8 44
39 9 14
39 10 37
39 11 59
39 12 72
39 13 9
39 14 70
39 15 48
39 16 22
39 17 50
39 18 39
39 19 3
39 20 25
39 21 61
39 22 1
39 23 32
39 24 63
39 25 11
39 26 76
39 27 38
39 28 24
39 29 23
39 30 10
39 31 75
39 32 1
39 33 7
39 34 46
39 35 56
39 36 4
39 37 37
39 38 58
40 0 44
40 1 44
40 2 27
40 3 58
40 4 80
40 5 24
40 6 35
40 7 22
40 8 18
40 9 31
40 10 37
40 11 25
40 12 54
40 13 46
40 14 55
40 15 40
40 16 41
40 17 13
40 18 3
40 19 12
40 20 10
40 21 27
40 22 18
40 23 26
40 24 26
40 25 61
40 26 33
40 27 2
40 28 78
40 29 41
40 30 46
40 31 63
40 32 10
40 33 49
40 34 39
40 35 11
40 36 76
40 37 7
40 38 2
40 39 49
41 0 2
41 1 4
41 2 8
41 3 35
41 4 63
41 5 10
41 6 52
41 7 72
41 8 16
41 9 47
41 10 24
41 11 16
41 12 71
41 13 56
41 14 50
41 15 20
41 16 30
41 17 19
41 18 22
41 19 40
41 20 8
41 21 25
41 22 20
41 23 11
41 24 38
41 25 52
41 26 13
41 27 77
41 28 4
41 29 26
41 30 22
41 31 63
41 32 32
41 33 29
41 34 43
41 35 31
41 36 60
41 37 59
41 38 5
41 39 8
41 40 79
42 0 63
42 1 61
42 2 56
42 3 63
42 4 79
42 5 71
42 6 18
42 7 1
42 8 40
42 9 76
42 10 57
42 11 49
42 12 18
42 13 8
42 14 16
42 15 43
42 16 4
42 17 76
42 18 21
42 19 46
42 20 41
42 21 44
42 22 12
42 23 9
42 24 16
42 25 64
42 26 9
42 27 2
42 28 39
42 29 59
42 30 46
42 31 38
42 32 50
42 33 19
42 34 20
42 35 7
42 36 77
42 37 22
42 38 19
42 39 1
42 40 5
42 41 57
43 0 77
43 1 46
43 2 1
43 3 10
43 4 9
43 5 60
43 6 79
43 7 33
43 8 25
43 9 44
43 10 3
43 11 1
43 12 75
43 13 9
43 14 48
43 15 70
43 16 30
43 17 2
43 18 18
43 19 63
43 20 63
43 21 14
43 22 37
43 23 41
43 24 69
43 25 24
43 26 79
43 27 69
43 28 30
43 29 62
43 30 28
43 31 57
43 32 42
43 33 40
43 34 73
43 35 44
43 36 19
43 37 78
43 38 71
43 39 80
43 40 75
43 41 53
43 42 46
44 0 48
44 1 51
44 2 40
44 3 18
44 4 48
44 5 8
44 6 3
44 7 72
44 8 45
44 9 45
44 10 42
44 11 49
44 12 14
44 13 28
44 14 2
44 15 33
44 16 32
44 17 14
44 18 26
44 19 7
44 20 76
44 21 9
44 22 18
44 23 78
44 24 63
44 25 37
44 26 33
44 27 63
44 28 74
44 29 2
44 30 13
44 31 39
44 32 69
44 33 37
44 34 36
44 35 53
44 36 45
44 37 68
44 38 14
44 39 2
44 40 42
44 41 40
44 42 56
44 43 59
45 0 45
45 1 58
45 2 70
45 3 77
45 4 19
45 5 5
45 6 15
45 7 51
45 8 9
45 9 18
45 10 64
45 11 40
45 12 28
45 13 58
45 14 37
45 15 64
45 16 9
45 17 68
45 18 61
45 19 17
45 20 74
45 21 55
45 22 6
45 23 77
45 24 2
45 25 16
45 26 17
45 27 3
45 28 14
45 29 34
45 30 45
45 31 19
45 32 52
45 33 50
45 34 30
45 35 13
45 36 19
45 37 62
45 38 24
45 39 42
45 40 40
45 41 48
45 42 36
45 43 35
45 44 55
46 0 24
46 1 55
46 2 40
46 3 6
46 4 40
46 5 42
46 6 59
46 7 30
46 8 8
46 9 27
46 10 75
46 11 66
46 12 11
46 13 41
46 14 61
46 15 75
46 16 58
46 17 47
46 18 54
46 19 77
46 20 58
46 21 71
46 22 61
46 23 55
46 24 60
46 25 71
46 26 58
46 27 76
46 28 48
46 29 36
46 30 64
46 31 16
46 32 26
46 33 53
46 34 21
46 35 66
46 36 25
46 37 66
46 38 73
46 39 13
46 40 29
46 41 79
46 42 50
46 43 22
46 44 38
46 45 77
47 0 59
47 1 8
47 2 65
47 3 56
47 4 12
47 5 40
47 6 9
47 7 40
47 8 8
47 9 15
47 10 41
47 11 34
47 12 15
47 13 59
47 14 49
47 15 2
47 16 5
47 17 1
47 18 6
47 19 75
47 20 63
47 21 65
47 22 19
47 23 16
47 24 74
47 25 41
47 26 37
47 27 34
47 28 53
47 29 7
47 30 23
47 31 70
47 32 57
47 33 54
47 34 40
47 35 22
47 36 61
47 37 46
47 38 56
47 39 75
47 40 44
47 41 44
47 42 8
47 43 41
47 44 9
47 45 38
47 46 37
48 0 20
48 1 45
48 2 2
48 3 41
48 4 71
48 5 34
48 6 60
48 7 23
48 8 23
48 9 55
48 10 66
48 11 10
48 12 53
48 13 59
48 14 20
48 15 21
48 16 68
48 17 79
48 18 28
48 19 34
48 20 75
48 21 77
48 22 67
48 23 55
48 24 38
48 25 73
48 26 59
48 27 39
48 28 60
48 29 39
48 30 2
48 31 64
48 32 1
48 33 73
48 34 54
48 35 44
48 36 53
48 37 46
48 38 50
48 39 72
48 40 58
48 41 17
48 42 46
48 43 12
48 44 13
48 45 75
48 46 77
48 47 12
49 0 58
49 1 68
49 2 29
49 3 36
49 4 46
49 5 79
49 6 5
49 7 70
49 8 68
49 9 63
49 10 59
49 11 78
49 12 57
49 13 31
49 14 30
49 15 46
49 16 66
49 17 34
49 18 79
49 19 46
49 20 6
49 21 13
49 22 41
49 23 30
49 24 5
49 25 6
49 26 19
49 27 73
49 28 64
49 29 16
49 30 41
49 31 11
49 32 38
49 33 77
49 34 35
49 35 4
49 36 13
49 37 22
49 38 10
49 39 11
49 40 9
49 41 4
49 42 39
49 43 44
49 44 65
49 45 35
49 46 49
49 47 28
49 48 67
